c Result of efficient AIG-to-CNF conversion using package CNF
p cnf 249 921
-2 3 -157 -159 161 0
-2 3 157 159 161 0
2 -161 0
2 -157 159 0
2 -3 0
2 157 -159 0
3 -4 36 0
3 4 -36 0
-3 4 36 0
-3 -4 -36 0
4 -5 35 0
4 5 -35 0
-4 5 35 0
-4 -5 -35 0
5 -186 -219 0
5 -219 -6 0
5 -186 -6 0
-5 186 6 0
-5 219 6 0
-5 186 219 0
6 -187 -220 0
6 -220 -7 0
6 -187 -7 0
-6 187 7 0
-6 220 7 0
-6 187 220 0
7 -188 -221 0
7 -221 -8 0
7 -188 -8 0
-7 188 8 0
-7 221 8 0
-7 188 221 0
8 -189 -222 0
8 -222 -9 0
8 -189 -9 0
-8 189 9 0
-8 222 9 0
-8 189 222 0
9 -190 -223 0
9 -223 -10 0
9 -190 -10 0
-9 190 10 0
-9 223 10 0
-9 190 223 0
10 -191 -224 0
10 -224 -11 0
10 -191 -11 0
-10 191 11 0
-10 224 11 0
-10 191 224 0
11 -192 -225 0
11 -225 -12 0
11 -192 -12 0
-11 192 12 0
-11 225 12 0
-11 192 225 0
12 -193 -226 0
12 -226 -13 0
12 -193 -13 0
-12 193 13 0
-12 226 13 0
-12 193 226 0
13 -194 -227 0
13 -227 -14 0
13 -194 -14 0
-13 194 14 0
-13 227 14 0
-13 194 227 0
14 -195 -228 0
14 -228 -15 0
14 -195 -15 0
-14 195 15 0
-14 228 15 0
-14 195 228 0
15 -196 -229 0
15 -229 -16 0
15 -196 -16 0
-15 196 16 0
-15 229 16 0
-15 196 229 0
16 -197 -230 0
16 -230 -17 0
16 -197 -17 0
-16 197 17 0
-16 230 17 0
-16 197 230 0
17 -198 -231 0
17 -231 -18 0
17 -198 -18 0
-17 198 18 0
-17 231 18 0
-17 198 231 0
18 -199 -232 0
18 -232 -19 0
18 -199 -19 0
-18 199 19 0
-18 232 19 0
-18 199 232 0
19 -200 -233 0
19 -233 -20 0
19 -200 -20 0
-19 200 20 0
-19 233 20 0
-19 200 233 0
20 -201 -234 0
20 -234 -21 0
20 -201 -21 0
-20 201 21 0
-20 234 21 0
-20 201 234 0
21 -202 -235 0
21 -235 -22 0
21 -202 -22 0
-21 202 22 0
-21 235 22 0
-21 202 235 0
22 -203 -236 0
22 -236 -23 0
22 -203 -23 0
-22 203 23 0
-22 236 23 0
-22 203 236 0
23 -204 -237 0
23 -237 -24 0
23 -204 -24 0
-23 204 24 0
-23 237 24 0
-23 204 237 0
24 -205 -238 0
24 -238 -25 0
24 -205 -25 0
-24 205 25 0
-24 238 25 0
-24 205 238 0
25 -206 -239 0
25 -239 -26 0
25 -206 -26 0
-25 206 26 0
-25 239 26 0
-25 206 239 0
26 -207 -240 0
26 -240 -27 0
26 -207 -27 0
-26 207 27 0
-26 240 27 0
-26 207 240 0
27 -208 -241 0
27 -241 -28 0
27 -208 -28 0
-27 208 28 0
-27 241 28 0
-27 208 241 0
28 -209 -242 0
28 -242 -29 0
28 -209 -29 0
-28 209 29 0
-28 242 29 0
-28 209 242 0
29 -210 -243 0
29 -243 -30 0
29 -210 -30 0
-29 210 30 0
-29 243 30 0
-29 210 243 0
30 -211 -244 0
30 -244 -31 0
30 -211 -31 0
-30 211 31 0
-30 244 31 0
-30 211 244 0
31 -212 -245 0
31 -245 -32 0
31 -212 -32 0
-31 212 32 0
-31 245 32 0
-31 212 245 0
32 -213 -246 0
32 -246 -33 0
32 -213 -33 0
-32 213 33 0
-32 246 33 0
-32 213 246 0
33 -214 -247 0
33 -247 -34 0
33 -214 -34 0
-33 214 34 0
-33 247 34 0
-33 214 247 0
34 -215 -248 0
-34 215 0
-34 248 0
-35 -185 -218 0
-35 185 218 0
35 185 -218 0
35 -185 218 0
-36 37 155 0
-36 -37 -155 0
36 -37 155 0
36 37 -155 0
37 -218 -70 0
37 -218 -38 0
37 -38 -70 0
-37 38 70 0
-37 218 70 0
-37 218 38 0
-38 -39 -40 0
-38 39 40 0
38 39 -40 0
38 -39 40 0
39 186 -218 0
39 -186 218 0
-39 -186 -218 0
-39 186 218 0
40 -187 -219 0
40 -219 -41 0
40 -187 -41 0
-40 187 41 0
-40 219 41 0
-40 187 219 0
41 -188 -220 0
41 -220 -42 0
41 -188 -42 0
-41 188 42 0
-41 220 42 0
-41 188 220 0
42 -189 -221 0
42 -221 -43 0
42 -189 -43 0
-42 189 43 0
-42 221 43 0
-42 189 221 0
43 -190 -222 0
43 -222 -44 0
43 -190 -44 0
-43 190 44 0
-43 222 44 0
-43 190 222 0
44 -191 -223 0
44 -223 -45 0
44 -191 -45 0
-44 191 45 0
-44 223 45 0
-44 191 223 0
45 -192 -224 0
45 -224 -46 0
45 -192 -46 0
-45 192 46 0
-45 224 46 0
-45 192 224 0
46 -193 -225 0
46 -225 -47 0
46 -193 -47 0
-46 193 47 0
-46 225 47 0
-46 193 225 0
47 -194 -226 0
47 -226 -48 0
47 -194 -48 0
-47 194 48 0
-47 226 48 0
-47 194 226 0
48 -195 -227 0
48 -227 -49 0
48 -195 -49 0
-48 195 49 0
-48 227 49 0
-48 195 227 0
49 -196 -228 0
49 -228 -50 0
49 -196 -50 0
-49 196 50 0
-49 228 50 0
-49 196 228 0
50 -197 -229 0
50 -229 -51 0
50 -197 -51 0
-50 197 51 0
-50 229 51 0
-50 197 229 0
51 -198 -230 0
51 -230 -52 0
51 -198 -52 0
-51 198 52 0
-51 230 52 0
-51 198 230 0
52 -199 -231 0
52 -231 -53 0
52 -199 -53 0
-52 199 53 0
-52 231 53 0
-52 199 231 0
53 -200 -232 0
53 -232 -54 0
53 -200 -54 0
-53 200 54 0
-53 232 54 0
-53 200 232 0
54 -201 -233 0
54 -233 -55 0
54 -201 -55 0
-54 201 55 0
-54 233 55 0
-54 201 233 0
55 -202 -234 0
55 -234 -56 0
55 -202 -56 0
-55 202 56 0
-55 234 56 0
-55 202 234 0
56 -203 -235 0
56 -235 -57 0
56 -203 -57 0
-56 203 57 0
-56 235 57 0
-56 203 235 0
57 -204 -236 0
57 -236 -58 0
57 -204 -58 0
-57 204 58 0
-57 236 58 0
-57 204 236 0
58 -205 -237 0
58 -237 -59 0
58 -205 -59 0
-58 205 59 0
-58 237 59 0
-58 205 237 0
59 -206 -238 0
59 -238 -60 0
59 -206 -60 0
-59 206 60 0
-59 238 60 0
-59 206 238 0
60 -207 -239 0
60 -239 -61 0
60 -207 -61 0
-60 207 61 0
-60 239 61 0
-60 207 239 0
61 -208 -240 0
61 -240 -62 0
61 -208 -62 0
-61 208 62 0
-61 240 62 0
-61 208 240 0
62 -209 -241 0
62 -241 -63 0
62 -209 -63 0
-62 209 63 0
-62 241 63 0
-62 209 241 0
63 -210 -242 0
63 -242 -64 0
63 -210 -64 0
-63 210 64 0
-63 242 64 0
-63 210 242 0
64 -211 -243 0
64 -243 -65 0
64 -211 -65 0
-64 211 65 0
-64 243 65 0
-64 211 243 0
65 -212 -244 0
65 -244 -66 0
65 -212 -66 0
-65 212 66 0
-65 244 66 0
-65 212 244 0
66 -213 -245 0
66 -245 -67 0
66 -213 -67 0
-66 213 67 0
-66 245 67 0
-66 213 245 0
67 -214 -246 0
67 -246 -68 0
67 -214 -68 0
-67 214 68 0
-67 246 68 0
-67 214 246 0
68 -215 -247 0
68 -247 -69 0
68 -215 -69 0
-68 215 69 0
-68 247 69 0
-68 215 247 0
69 -216 -248 0
-69 216 0
-69 248 0
70 -219 -73 0
70 -219 -71 0
70 -71 -73 0
-70 71 73 0
-70 219 73 0
-70 219 71 0
-71 -41 -72 0
-71 41 72 0
71 41 -72 0
71 -41 72 0
72 187 -219 0
72 -187 219 0
-72 -187 -219 0
-72 187 219 0
73 -220 -76 0
73 -220 -74 0
73 -74 -76 0
-73 74 76 0
-73 220 76 0
-73 220 74 0
-74 -42 -75 0
-74 42 75 0
74 42 -75 0
74 -42 75 0
75 188 -220 0
75 -188 220 0
-75 -188 -220 0
-75 188 220 0
76 -221 -79 0
76 -221 -77 0
76 -77 -79 0
-76 77 79 0
-76 221 79 0
-76 221 77 0
-77 -43 -78 0
-77 43 78 0
77 43 -78 0
77 -43 78 0
78 189 -221 0
78 -189 221 0
-78 -189 -221 0
-78 189 221 0
79 -222 -82 0
79 -222 -80 0
79 -80 -82 0
-79 80 82 0
-79 222 82 0
-79 222 80 0
-80 -44 -81 0
-80 44 81 0
80 44 -81 0
80 -44 81 0
81 190 -222 0
81 -190 222 0
-81 -190 -222 0
-81 190 222 0
82 -223 -85 0
82 -223 -83 0
82 -83 -85 0
-82 83 85 0
-82 223 85 0
-82 223 83 0
-83 -45 -84 0
-83 45 84 0
83 45 -84 0
83 -45 84 0
84 191 -223 0
84 -191 223 0
-84 -191 -223 0
-84 191 223 0
85 -224 -88 0
85 -224 -86 0
85 -86 -88 0
-85 86 88 0
-85 224 88 0
-85 224 86 0
-86 -46 -87 0
-86 46 87 0
86 46 -87 0
86 -46 87 0
87 192 -224 0
87 -192 224 0
-87 -192 -224 0
-87 192 224 0
88 -225 -91 0
88 -225 -89 0
88 -89 -91 0
-88 89 91 0
-88 225 91 0
-88 225 89 0
-89 -47 -90 0
-89 47 90 0
89 47 -90 0
89 -47 90 0
90 193 -225 0
90 -193 225 0
-90 -193 -225 0
-90 193 225 0
91 -226 -94 0
91 -226 -92 0
91 -92 -94 0
-91 92 94 0
-91 226 94 0
-91 226 92 0
-92 -48 -93 0
-92 48 93 0
92 48 -93 0
92 -48 93 0
93 194 -226 0
93 -194 226 0
-93 -194 -226 0
-93 194 226 0
94 -227 -97 0
94 -227 -95 0
94 -95 -97 0
-94 95 97 0
-94 227 97 0
-94 227 95 0
-95 -49 -96 0
-95 49 96 0
95 49 -96 0
95 -49 96 0
96 195 -227 0
96 -195 227 0
-96 -195 -227 0
-96 195 227 0
97 -228 -100 0
97 -228 -98 0
97 -98 -100 0
-97 98 100 0
-97 228 100 0
-97 228 98 0
-98 -50 -99 0
-98 50 99 0
98 50 -99 0
98 -50 99 0
99 196 -228 0
99 -196 228 0
-99 -196 -228 0
-99 196 228 0
100 -229 -103 0
100 -229 -101 0
100 -101 -103 0
-100 101 103 0
-100 229 103 0
-100 229 101 0
-101 -51 -102 0
-101 51 102 0
101 51 -102 0
101 -51 102 0
102 197 -229 0
102 -197 229 0
-102 -197 -229 0
-102 197 229 0
103 -230 -106 0
103 -230 -104 0
103 -104 -106 0
-103 104 106 0
-103 230 106 0
-103 230 104 0
-104 -52 -105 0
-104 52 105 0
104 52 -105 0
104 -52 105 0
105 198 -230 0
105 -198 230 0
-105 -198 -230 0
-105 198 230 0
106 -231 -109 0
106 -231 -107 0
106 -107 -109 0
-106 107 109 0
-106 231 109 0
-106 231 107 0
-107 -53 -108 0
-107 53 108 0
107 53 -108 0
107 -53 108 0
108 199 -231 0
108 -199 231 0
-108 -199 -231 0
-108 199 231 0
109 -232 -112 0
109 -232 -110 0
109 -110 -112 0
-109 110 112 0
-109 232 112 0
-109 232 110 0
-110 -54 -111 0
-110 54 111 0
110 54 -111 0
110 -54 111 0
111 200 -232 0
111 -200 232 0
-111 -200 -232 0
-111 200 232 0
112 -233 -115 0
112 -233 -113 0
112 -113 -115 0
-112 113 115 0
-112 233 115 0
-112 233 113 0
-113 -55 -114 0
-113 55 114 0
113 55 -114 0
113 -55 114 0
114 201 -233 0
114 -201 233 0
-114 -201 -233 0
-114 201 233 0
115 -234 -118 0
115 -234 -116 0
115 -116 -118 0
-115 116 118 0
-115 234 118 0
-115 234 116 0
-116 -56 -117 0
-116 56 117 0
116 56 -117 0
116 -56 117 0
117 202 -234 0
117 -202 234 0
-117 -202 -234 0
-117 202 234 0
118 -235 -121 0
118 -235 -119 0
118 -119 -121 0
-118 119 121 0
-118 235 121 0
-118 235 119 0
-119 -57 -120 0
-119 57 120 0
119 57 -120 0
119 -57 120 0
120 203 -235 0
120 -203 235 0
-120 -203 -235 0
-120 203 235 0
121 -236 -124 0
121 -236 -122 0
121 -122 -124 0
-121 122 124 0
-121 236 124 0
-121 236 122 0
-122 -58 -123 0
-122 58 123 0
122 58 -123 0
122 -58 123 0
123 204 -236 0
123 -204 236 0
-123 -204 -236 0
-123 204 236 0
124 -237 -127 0
124 -237 -125 0
124 -125 -127 0
-124 125 127 0
-124 237 127 0
-124 237 125 0
-125 -59 -126 0
-125 59 126 0
125 59 -126 0
125 -59 126 0
126 205 -237 0
126 -205 237 0
-126 -205 -237 0
-126 205 237 0
127 -238 -130 0
127 -238 -128 0
127 -128 -130 0
-127 128 130 0
-127 238 130 0
-127 238 128 0
-128 -60 -129 0
-128 60 129 0
128 60 -129 0
128 -60 129 0
129 206 -238 0
129 -206 238 0
-129 -206 -238 0
-129 206 238 0
130 -239 -133 0
130 -239 -131 0
130 -131 -133 0
-130 131 133 0
-130 239 133 0
-130 239 131 0
-131 -61 -132 0
-131 61 132 0
131 61 -132 0
131 -61 132 0
132 207 -239 0
132 -207 239 0
-132 -207 -239 0
-132 207 239 0
133 -240 -136 0
133 -240 -134 0
133 -134 -136 0
-133 134 136 0
-133 240 136 0
-133 240 134 0
-134 -62 -135 0
-134 62 135 0
134 62 -135 0
134 -62 135 0
135 208 -240 0
135 -208 240 0
-135 -208 -240 0
-135 208 240 0
136 -241 -139 0
136 -241 -137 0
136 -137 -139 0
-136 137 139 0
-136 241 139 0
-136 241 137 0
-137 -63 -138 0
-137 63 138 0
137 63 -138 0
137 -63 138 0
138 209 -241 0
138 -209 241 0
-138 -209 -241 0
-138 209 241 0
139 -242 -142 0
139 -242 -140 0
139 -140 -142 0
-139 140 142 0
-139 242 142 0
-139 242 140 0
-140 -64 -141 0
-140 64 141 0
140 64 -141 0
140 -64 141 0
141 210 -242 0
141 -210 242 0
-141 -210 -242 0
-141 210 242 0
142 -243 -143 0
142 -143 -145 0
142 -243 -145 0
-142 243 145 0
-142 143 145 0
-142 243 143 0
143 65 -144 0
143 -65 144 0
-143 -65 -144 0
-143 65 144 0
144 211 -243 0
144 -211 243 0
-144 -211 -243 0
-144 211 243 0
145 -244 -146 0
145 -146 -148 0
145 -244 -148 0
-145 244 148 0
-145 146 148 0
-145 244 146 0
146 66 -147 0
146 -66 147 0
-146 -66 -147 0
-146 66 147 0
147 212 -244 0
147 -212 244 0
-147 -212 -244 0
-147 212 244 0
148 -245 -149 0
148 -149 -151 0
148 -245 -151 0
-148 245 151 0
-148 149 151 0
-148 245 149 0
149 67 -150 0
149 -67 150 0
-149 -67 -150 0
-149 67 150 0
150 213 -245 0
150 -213 245 0
-150 -213 -245 0
-150 213 245 0
151 -246 -152 0
151 -152 -154 0
151 -246 -154 0
-151 246 154 0
-151 152 154 0
-151 246 152 0
152 68 -153 0
152 -68 153 0
-152 -68 -153 0
-152 68 153 0
153 214 -246 0
153 -214 246 0
-153 -214 -246 0
-153 214 246 0
154 -215 -247 -248 0
154 215 -247 248 0
154 -215 216 -248 0
154 215 216 -247 0
-154 -215 248 0
-154 215 -216 -248 0
-154 -216 247 0
-154 215 247 0
-155 -185 -156 0
-155 185 156 0
155 185 -156 0
155 -185 156 0
156 -186 -218 0
156 -218 -40 0
156 -186 -40 0
-156 186 40 0
-156 218 40 0
-156 186 218 0
157 70 -158 0
157 -70 158 0
-157 -70 -158 0
-157 70 158 0
158 186 -40 0
158 -186 40 0
-158 -186 -40 0
-158 186 40 0
-159 -6 -160 0
-159 6 160 0
159 6 -160 0
159 -6 160 0
160 186 -219 0
160 -186 219 0
-160 -186 -219 0
-160 186 219 0
-161 -162 -164 166 171 0
-161 162 164 166 171 0
161 -171 0
161 162 -164 0
161 -166 0
161 -162 164 0
162 73 -163 0
162 -73 163 0
-162 -73 -163 0
-162 73 163 0
163 187 -41 0
163 -187 41 0
-163 -187 -41 0
-163 187 41 0
-164 -7 -165 0
-164 7 165 0
164 7 -165 0
164 -7 165 0
165 187 -220 0
165 -187 220 0
-165 -187 -220 0
-165 187 220 0
166 -167 169 0
166 167 -169 0
-166 167 169 0
-166 -167 -169 0
167 76 -168 0
167 -76 168 0
-167 -76 -168 0
-167 76 168 0
168 188 -42 0
168 -188 42 0
-168 -188 -42 0
-168 188 42 0
-169 -8 -170 0
-169 8 170 0
169 8 -170 0
169 -8 170 0
170 188 -221 0
170 -188 221 0
-170 -188 -221 0
-170 188 221 0
-171 172 174 176 0
-171 -172 -174 176 0
171 -176 0
171 172 -174 0
171 -172 174 0
172 79 -173 0
172 -79 173 0
-172 -79 -173 0
-172 79 173 0
173 189 -43 0
173 -189 43 0
-173 -189 -43 0
-173 189 43 0
-174 -9 -175 0
-174 9 175 0
174 9 -175 0
174 -9 175 0
175 189 -222 0
175 -189 222 0
-175 -189 -222 0
-175 189 222 0
-176 -177 -179 -181 -183 0
-176 177 179 181 183 0
-176 -177 -179 181 183 0
-176 177 179 -181 -183 0
176 -177 179 0
176 177 -179 0
176 181 -183 0
176 -181 183 0
177 82 -178 0
177 -82 178 0
-177 -82 -178 0
-177 82 178 0
178 190 -44 0
178 -190 44 0
-178 -190 -44 0
-178 190 44 0
-179 -10 -180 0
-179 10 180 0
179 10 -180 0
179 -10 180 0
180 190 -223 0
180 -190 223 0
-180 -190 -223 0
-180 190 223 0
181 103 -182 0
181 -103 182 0
-181 -103 -182 0
-181 103 182 0
182 197 -51 0
182 -197 51 0
-182 -197 -51 0
-182 197 51 0
-183 -17 -184 0
-183 17 184 0
183 17 -184 0
183 -17 184 0
184 197 -230 0
184 -197 230 0
-184 -197 -230 0
-184 197 230 0
-249 0
2 0

